c 1150 z 1800
575	485
575	485
920	776
1150	970
275	450
690	582
110	180
495	810
330	540
330	540
1035	873
345	291
460	388
495	810
495	810
385	630
805	679
220	360
805	679
550	900
1035	873
575	485
220	360
575	485
55	90
440	720
440	720
1150	970
495	810
330	540
805	679
345	291
220	360
230	194
440	720
110	180
385	630
385	630
110	180
165	270
220	360
220	360
550	900
115	97
115	97
1150	970
550	900
230	194
385	630
385	630